proyfinal/src/viki/013/andrea/andrea-localstore/experimentInOfficeAgust.take6/worker_3/9349920a-c051-4815-aa3a-b1c7d0b9a3e0.als.cnf.out
Reading from standard input... Use '--help' for help.
============================[ Problem Statistics ]=============================
|                                                                             |
|  Number of variables:         87638                                         |
|  Number of clauses:          161767                                         |
|  Parse time:                   0.04 s                                       |
|                                                                             |
============================[ Search Statistics ]==============================
| Conflicts |          ORIGINAL         |          LEARNT          | Progress |
|           |    Vars  Clauses Literals |    Limit  Clauses Lit/Cl |          |
===============================================================================
|       100 |   62331   105010   262381 |    38503      100     11 | 28.877 % |
|       250 |   62331   105010   262381 |    42354      250     59 | 28.877 % |
|       475 |   62266   104936   262210 |    46589      470    162 | 28.951 % |
|       812 |   62266   104759   261763 |    51248      790    133 | 28.951 % |
|      1318 |   62266   104759   261763 |    56373     1296    110 | 28.951 % |
|      2077 |   62245   104715   261673 |    62010     2053     94 | 28.975 % |
|      3216 |   62034   103793   259498 |    68211     3186     94 | 29.216 % |
|      4924 |   61962   103514   258818 |    75032     4889     88 | 29.298 % |
|      7486 |   61881   103438   258642 |    82536     7447     91 | 29.390 % |
|     11330 |   61791   102795   257127 |    90789     9699     88 | 29.493 % |
|     17096 |   51511    73212   184589 |    99868    15043     80 | 41.223 % |
===============================================================================
restarts              : 70
conflicts             : 20297          (6869 /sec)
decisions             : 64558          (0.00 % random) (21848 /sec)
propagations          : 29495568       (9982130 /sec)
conflict literals     : 1520791        (51.74 % deleted)
Memory used           : 35.79 MB
CPU time              : 2.95484 s

UNSATISFIABLE
